500
750
600
600
600
600
597
596
595
594
594
593
593
592
592
591
591
590
589
588
587
586
586
585
584
582
582
580
580
579
578
577
576
574
572
572
571
571
571
571
570
570
566
563
561
560
560
559
559
559
558
558
556
554
553
552
551
551
549
548
548
547
544
544
543
543
543
543
542
541
540
539
537
536
534
533
531
531
531
530
526
526
525
524
523
523
522
521
520
520
520
520
518
518
518
517
516
515
515
514
513
512
512
511
511
510
509
509
508
505
503
502
500
499
498
498
497
496
495
495
494
492
492
490
490
490
489
488
486
486
485
483
483
481
481
481
480
480
477
477
477
476
475
475
474
471
470
467
467
466
465
464
463
461
461
457
457
457
456
456
455
453
452
451
449
449
447
444
443
443
441
438
438
437
436
436
435
435
434
432
432
431
431
430
429
428
427
426
426
426
425
424
424
422
422
422
421
419
419
419
418
417
417
415
415
415
414
413
410
406
405
404
403
402
400
398
397
397
397
395
394
393
392
392
391
391
390
389
388
388
387
387
387
385
385
385
384
384
384
382
382
382
382
382
380
379
379
379
378
376
376
376
373
373
371
371
370
370
368
365
365
364
364
363
363
363
362
360
360
359
359
358
358
356
355
355
355
353
351
350
349
347
347
346
344
344
343
343
342
342
340
340
338
338
338
337
337
337
335
334
332
331
329
329
328
328
327
327
326
325
324
322
322
321
321
320
320
319
319
318
318
318
317
317
315
315
314
314
312
310
309
308
306
306
305
304
303
302
300
300
299
298
298
297
296
295
294
294
293
293
293
292
291
290
289
288
288
287
286
283
282
282
281
280
277
273
269
269
267
266
266
266
265
265
264
263
262
261
259
259
258
255
255
253
253
253
253
251
250
250
249
248
247
246
243
242
241
240
239
239
239
236
235
233
231
231
231
229
228
225
223
221
221
220
216
214
213
212
211
211
210
209
209
209
209
208
206
206
206
203
203
203
203
202
202
201
200
200
198
197
197
196
195
193
192
192
191
191
189
189
188
187
186
186
186
185
184
184
183
182
181
181
179
178
178
176
175
175
174
173
172
172
172
171
171
170
169
169
166
166
165
165
165
164
164
164
162
162
162
161
160
160
159
155
155
154
154
153
152
152
152
151
